Algorithms Design and Anslysis/Algorithm_Homework_4_LP/2_LP.out
GLPSOL: GLPK LP/MIP Solver, v4.57
Parameter(s) specified in the command line:
 -m 2_LP.mod -o 2_LP.ans
Reading model section from 2_LP.mod...
2_LP.mod:22: warning: final NL missing before end of file
22 lines were read
Generating obj...
Generating c1...
Generating c2...
Generating c3...
Generating c4...
Generating c5...
Generating c6...
Generating c7...
Generating c8...
Model has been successfully generated
GLPK Simplex Optimizer, v4.57
9 rows, 10 columns, 19 non-zeros
Preprocessing...
2 rows, 4 columns, 6 non-zeros
Scaling...
 A: min|aij| =  1.000e+00  max|aij| =  1.000e+00  ratio =  1.000e+00
Problem data seem to be well scaled
Constructing initial basis...
Size of triangular part is 2
*     0: obj =  -0.000000000e+00 inf =   0.000e+00 (1)
*     2: obj =   6.000000000e+01 inf =   0.000e+00 (0)
OPTIMAL LP SOLUTION FOUND
Time used:   0.0 secs
Memory used: 0.1 Mb (102377 bytes)
Display statement at line 21
x1.val = 600
x2.val = 680
x3.val = 740
m.val = 60
Model has been successfully processed
Writing basic solution to '2_LP.ans'...
